NAME : eil51.out.tour
COMMENT : Tour for eil51.tsp (Length 485)
TYPE : TOUR
DIMENSION : 51
TOUR_SECTION
18
39
41
43
14
44
32
36
16
11
31
10
4
37
8
1
15
49
48
9
38
29
33
20
28
19
34
35
2
27
30
25
7
22
6
42
23
24
13
5
47
21
0
26
50
45
46
17
3
12
40
18
-1
EOF